Route #1: 1 5 36 28 26 33 30 41 21 22 6 1
Route #2: 1 31 12 4 23 25 7 43 40 18 1
Route #3: 1 10 27 35 8 17 16 13 1
Route #4: 1 19 20 15 29 38 2 11 1
Route #5: 1 37 39 32 9 3 24 34 1
Route #6: 1 42 14 1
cost 820.7285675938095